2017.26
0 17 18 19 20 32 1 34 3 2 4 7 6 9 5 10 8 11 12 15 14 13 16 29 31 30 28 27 26 23 22 21 25 24 0
0 33 70 63 79 41 40 44 42 43 39 35 36 37 45 38 50 52 51 55 54 59 60 61 57 58 56 53 62 48 47 64 46 0
0 86 84 85 87 88 89 90 80 81 69 68 67 78 76 134 75 73 74 71 66 82 0
0 102 100 104 99 101 98 96 95 93 97 94 92 83 116 0
0 109 108 107 106 115 117 113 112 111 110 133 105 103 91 0
0 128 129 123 127 124 125 126 122 121 120 114 119 65 118 0
0 130 131 132 77 49 72 0
